n_res = 4;
rc = [ 23, 24, 20, 19 ];
n_tasks = 90;
d = [ 5, 8, 10, 4, 8, 2, 10, 8, 4, 3, 5, 7, 4, 5, 9, 9, 8, 7, 5, 4, 4, 9, 4, 10, 9, 3, 8, 1, 3, 1, 4, 7, 6, 3, 7, 10, 4, 10, 1, 7, 4, 9, 5, 7, 8, 5, 4, 2, 5, 1, 2, 7, 8, 5, 6, 2, 9, 8, 3, 10, 10, 3, 5, 8, 9, 4, 8, 7, 1, 5, 7, 1, 9, 10, 5, 8, 6, 2, 9, 1, 6, 8, 9, 10, 10, 8, 2, 2, 7, 4 ];
rr = [| 5, 0, 0, 4, 0, 0, 0, 9, 0, 3, 0, 4, 6, 10, 0, 0, 0, 0, 3, 0, 0, 0, 0, 0, 0, 7, 8, 0, 0, 0, 0, 0, 0, 0, 0, 0, 4, 0, 0, 0, 1, 4, 0, 0, 0, 0, 0, 0, 1, 0, 0, 5, 0, 0, 8, 0, 0, 0, 5, 0, 0, 0, 6, 0, 0, 9, 0, 0, 0, 0, 10, 7, 8, 0, 6, 0, 0, 0, 0, 0, 4, 0, 4, 0, 0, 0, 0, 0, 0, 0
      | 0, 7, 0, 0, 0, 7, 0, 0, 0, 0, 0, 0, 0, 0, 0, 5, 0, 3, 0, 0, 0, 0, 0, 8, 0, 0, 0, 8, 7, 0, 4, 0, 5, 9, 0, 5, 0, 0, 0, 0, 0, 0, 0, 5, 0, 0, 0, 0, 0, 0, 0, 0, 10, 0, 0, 0, 4, 0, 0, 0, 0, 0, 0, 0, 2, 0, 2, 2, 0, 0, 0, 0, 0, 0, 0, 4, 0, 0, 0, 8, 0, 0, 0, 5, 0, 3, 0, 6, 5, 0
      | 0, 0, 7, 0, 0, 0, 5, 0, 0, 0, 4, 0, 0, 0, 4, 0, 7, 0, 0, 0, 0, 2, 0, 0, 0, 0, 0, 0, 0, 0, 0, 10, 0, 0, 5, 0, 0, 6, 3, 0, 0, 0, 0, 0, 9, 10, 0, 0, 0, 9, 0, 0, 0, 9, 0, 0, 0, 0, 0, 2, 0, 0, 0, 4, 0, 0, 0, 0, 0, 7, 0, 0, 0, 0, 0, 0, 0, 0, 0, 0, 0, 1, 0, 0, 0, 0, 7, 0, 0, 9
      | 0, 0, 0, 0, 7, 0, 0, 0, 8, 0, 0, 0, 0, 0, 0, 0, 0, 0, 0, 5, 9, 0, 1, 0, 5, 0, 0, 0, 0, 4, 0, 0, 0, 0, 0, 0, 0, 0, 0, 8, 0, 0, 10, 0, 0, 0, 10, 5, 0, 0, 9, 0, 0, 0, 0, 1, 0, 10, 0, 0, 4, 9, 0, 0, 0, 0, 0, 0, 1, 0, 0, 0, 0, 10, 0, 0, 8, 7, 3, 0, 0, 0, 0, 0, 10, 0, 0, 0, 0, 0 |];
suc = [ { 6, 11, 69 },
       { 4, 29, 46 },
       { 7, 17, 35 },
       { 5, 73 },
       { 8, 15, 25 },
       { 9, 14, 31 },
       { 10, 20, 22 },
       { 55 },
       { 12, 52, 53 },
       { 19, 23, 37 },
       { 13, 18, 37 },
       { 26, 32, 40 },
       { 19 },
       { 36, 41, 49 },
       { 16, 24, 44 },
       { 33, 57, 60 },
       { 28, 56 },
       { 62 },
       { 27, 53 },
       { 21 },
       { 25, 30, 52 },
       { 87 },
       { 34, 51 },
       { 43 },
       { 42, 61, 68 },
       { 45, 75 },
       { 45, 48 },
       { 47, 58 },
       { 54, 59, 76 },
       { 33, 59 },
       { 39, 41 },
       { 57, 66, 77 },
       { 63, 77 },
       { 62, 68, 81 },
       { 50 },
       { 88 },
       { 38 },
       { 46 },
       { 47 },
       { 58, 70 },
       { 44 },
       { 43 },
       { 65 },
       { 52, 66, 71 },
       { 49 },
       { 48, 83, 84 },
       { 73, 82 },
       { 56, 61 },
       { 72 },
       { 77, 89 },
       { 56, 68, 73 },
       { 64 },
       { 63, 79, 81 },
       { 60, 63, 64 },
       { 60, 86 },
       { 57 },
       { 64, 75 },
       { 82 },
       { 78, 80 },
       { 70, 74 },
       { 85 },
       { 66, 71 },
       { 74 },
       { 67 },
       { 69, 80 },
       { 79, 83 },
       { 74, 87, 90 },
       { 69, 78, 86 },
       { 70, 85 },
       { 89 },
       { 72 },
       { 83 },
       { 75 },
       { 85 },
       { 78, 80 },
       { 82 },
       { 81 },
       { 79 },
       { 88 },
       { 90 },
       { 84 },
       { 84 },
       { 86 },
       { 87 },
       { 89 },
       { 90 },
       { 88 },
       {  },
       {  },
       {  } ];
